(set-info :status sat)
(declare-const symbol_187 (_ BitVec 32))
(declare-const symbol_140 (_ BitVec 32))
(declare-const symbol_90 (_ BitVec 32))
(declare-const symbol_71 (_ BitVec 32))
(declare-const symbol_55 (_ BitVec 32))
(declare-const symbol_32 (_ BitVec 32))
(declare-const symbol_232 (_ BitVec 32))
(declare-const symbol_68 (_ BitVec 32))
(declare-const symbol_162 (_ BitVec 32))
(declare-const symbol_150 (_ BitVec 32))
(declare-const symbol_222 (_ BitVec 32))
(declare-const symbol_25 (_ BitVec 32))
(declare-const symbol_226 (_ BitVec 32))
(declare-const symbol_160 (_ BitVec 32))
(declare-const symbol_144 (_ BitVec 32))
(declare-const symbol_125 (_ BitVec 32))
(declare-const symbol_27 (_ BitVec 32))
(declare-const symbol_189 (_ BitVec 32))
(declare-const symbol_73 (_ BitVec 32))
(declare-const symbol_156 (_ BitVec 32))
(declare-const symbol_198 (_ BitVec 32))
(declare-const symbol_109 (_ BitVec 32))
(declare-const symbol_193 (_ BitVec 32))
(declare-const symbol_152 (_ BitVec 32))
(declare-const symbol_115 (_ BitVec 32))
(declare-const symbol_224 (_ BitVec 32))
(declare-const symbol_178 (_ BitVec 32))
(declare-const symbol_45 (_ BitVec 32))
(declare-const symbol_113 (_ BitVec 32))
(declare-const symbol_49 (_ BitVec 32))
(declare-const symbol_182 (_ BitVec 32))
(declare-const symbol_167 (_ BitVec 32))
(declare-const symbol_131 (_ BitVec 32))
(declare-const symbol_63 (_ BitVec 32))
(declare-const symbol_171 (_ BitVec 32))
(declare-const symbol_204 (_ BitVec 32))
(declare-const symbol_85 (_ BitVec 32))
(declare-const symbol_220 (_ BitVec 32))
(declare-const symbol_77 (_ BitVec 32))
(declare-const symbol_4 (_ BitVec 32))
(declare-const symbol_75 (_ BitVec 32))
(declare-const symbol_135 (_ BitVec 32))
(declare-const symbol_28 (_ BitVec 32))
(declare-const symbol_158 (_ BitVec 32))
(declare-const symbol_23 (_ BitVec 32))
(declare-const symbol_15 (_ BitVec 32))
(declare-const symbol_0 (_ BitVec 32))
(declare-const symbol_184 (_ BitVec 32))
(declare-const symbol_92 (_ BitVec 32))
(declare-const symbol_230 (_ BitVec 32))
(declare-const symbol_103 (_ BitVec 32))
(declare-const symbol_65 (_ BitVec 32))
(declare-const symbol_36 (_ BitVec 32))
(declare-const symbol_47 (_ BitVec 32))
(declare-const symbol_133 (_ BitVec 32))
(declare-const symbol_61 (_ BitVec 32))
(declare-const symbol_34 (_ BitVec 32))
(declare-const symbol_11 (_ BitVec 32))
(declare-const symbol_145 (_ BitVec 32))
(declare-const symbol_117 (_ BitVec 32))
(declare-const symbol_38 (_ BitVec 32))
(declare-const symbol_105 (_ BitVec 32))
(declare-const symbol_57 (_ BitVec 32))
(declare-const symbol_6 (_ BitVec 32))
(declare-const symbol_185 (_ BitVec 32))
(declare-const symbol_127 (_ BitVec 32))
(declare-const symbol_202 (_ BitVec 32))
(declare-const symbol_94 (_ BitVec 32))
(declare-const symbol_219 (_ BitVec 32))
(declare-const symbol_191 (_ BitVec 32))
(declare-const symbol_176 (_ BitVec 32))
(declare-const symbol_83 (_ BitVec 32))
(declare-const symbol_234 (_ BitVec 32))
(declare-const symbol_79 (_ BitVec 32))
(declare-const symbol_173 (_ BitVec 32))
(declare-const symbol_97 (_ BitVec 32))
(declare-const symbol_228 (_ BitVec 32))
(declare-const symbol_18 (_ BitVec 32))
(declare-const symbol_147 (_ BitVec 32))
(declare-const symbol_200 (_ BitVec 32))
(declare-const symbol_40 (_ BitVec 32))
(declare-const symbol_30 (_ BitVec 32))
(declare-const symbol_211 (_ BitVec 32))
(declare-const symbol_180 (_ BitVec 32))
(declare-const symbol_169 (_ BitVec 32))
(declare-const symbol_111 (_ BitVec 32))
(declare-const symbol_21 (_ BitVec 32))
(declare-const symbol_19 (_ BitVec 32))
(declare-const symbol_43 (_ BitVec 32))
(declare-const symbol_174 (_ BitVec 32))
(declare-const symbol_99 (_ BitVec 32))
(declare-const symbol_2 (_ BitVec 32))
(declare-const symbol_107 (_ BitVec 32))
(declare-const symbol_101 (_ BitVec 32))
(declare-const symbol_154 (_ BitVec 32))
(declare-const symbol_51 (_ BitVec 32))
(declare-const symbol_142 (_ BitVec 32))
(declare-const symbol_89 (_ BitVec 32))
(declare-const symbol_124 (_ BitVec 32))
(declare-const symbol_217 (_ BitVec 32))
(declare-const symbol_206 (_ BitVec 32))
(declare-const symbol_121 (_ BitVec 32))
(declare-const symbol_13 (_ BitVec 32))
(declare-const symbol_208 (_ BitVec 32))
(declare-const symbol_53 (_ BitVec 32))
(declare-const symbol_59 (_ BitVec 32))
(declare-const symbol_165 (_ BitVec 32))
(declare-const symbol_210 (_ BitVec 32))
(declare-const symbol_138 (_ BitVec 32))
(declare-const symbol_8 (_ BitVec 32))
(declare-const symbol_195 (_ BitVec 32))
(declare-const symbol_129 (_ BitVec 32))
(declare-const symbol_119 (_ BitVec 32))
(declare-const symbol_215 (_ BitVec 32))
(declare-const symbol_81 (_ BitVec 32))
(declare-const symbol_70 (_ BitVec 32))
(declare-const symbol_87 (_ BitVec 32))
(declare-const symbol_213 (_ BitVec 32))
(assert (not (= symbol_234 (_ bv8 32))))
(assert (not (not (= symbol_234 (_ bv4 32)))))
(assert (not (not (= symbol_232 (_ bv4 32)))))
(assert (not (not (= symbol_230 (_ bv4 32)))))
(assert (not (not (= symbol_228 (_ bv4 32)))))
(assert (not (not (= symbol_226 (_ bv4 32)))))
(assert (not (not (= symbol_224 (_ bv4 32)))))
(assert (not (not (= symbol_222 (_ bv4 32)))))
(assert (not (not (= symbol_220 (_ bv4 32)))))
(assert (not (not (= symbol_219 (_ bv4 32)))))
(assert (not (not (= symbol_217 (_ bv4 32)))))
(assert (not (not (= symbol_215 (_ bv4 32)))))
(assert (not (not (= symbol_213 (_ bv4 32)))))
(assert (not (not (= symbol_211 (_ bv4 32)))))
(assert (not (not (= symbol_210 (_ bv4 32)))))
(assert (not (not (= symbol_208 (_ bv4 32)))))
(assert (not (not (= symbol_206 (_ bv4 32)))))
(assert (not (not (= symbol_204 (_ bv4 32)))))
(assert (not (not (= symbol_202 (_ bv4 32)))))
(assert (not (not (= symbol_200 (_ bv4 32)))))
(assert (not (not (= symbol_198 (_ bv4 32)))))
(assert (not (not (= symbol_195 (_ bv4 32)))))
(assert (not (not (= symbol_193 (_ bv4 32)))))
(assert (not (not (= symbol_191 (_ bv4 32)))))
(assert (not (not (= symbol_189 (_ bv4 32)))))
(assert (not (not (= symbol_187 (_ bv4 32)))))
(assert (not (not (= symbol_185 (_ bv4 32)))))
(assert (not (not (= symbol_184 (_ bv4 32)))))
(assert (not (not (= symbol_182 (_ bv4 32)))))
(assert (not (not (= symbol_180 (_ bv4 32)))))
(assert (not (not (= symbol_178 (_ bv4 32)))))
(assert (not (not (= symbol_176 (_ bv4 32)))))
(assert (not (not (= symbol_174 (_ bv4 32)))))
(assert (not (not (= symbol_173 (_ bv4 32)))))
(assert (not (not (= symbol_171 (_ bv4 32)))))
(assert (not (not (= symbol_169 (_ bv4 32)))))
(assert (not (not (= symbol_167 (_ bv4 32)))))
(assert (not (not (= symbol_165 (_ bv4 32)))))
(assert (not (not (= symbol_162 (_ bv4 32)))))
(assert (not (not (= symbol_160 (_ bv4 32)))))
(assert (not (not (= symbol_158 (_ bv4 32)))))
(assert (not (not (= symbol_156 (_ bv4 32)))))
(assert (not (not (= symbol_154 (_ bv4 32)))))
(assert (not (not (= symbol_152 (_ bv4 32)))))
(assert (not (not (= symbol_150 (_ bv4 32)))))
(assert (not (not (= symbol_147 (_ bv4 32)))))
(assert (not (not (= symbol_145 (_ bv4 32)))))
(assert (not (not (= symbol_144 (_ bv4 32)))))
(assert (not (not (= symbol_142 (_ bv4 32)))))
(assert (not (not (= symbol_140 (_ bv4 32)))))
(assert (not (not (= symbol_138 (_ bv4 32)))))
(assert (not (not (= symbol_135 (_ bv4 32)))))
(assert (not (not (= symbol_133 (_ bv4 32)))))
(assert (not (not (= symbol_131 (_ bv4 32)))))
(assert (not (not (= symbol_129 (_ bv4 32)))))
(assert (not (not (= symbol_127 (_ bv4 32)))))
(assert (not (not (= symbol_125 (_ bv4 32)))))
(assert (not (not (= symbol_124 (_ bv4 32)))))
(assert (not (not (= symbol_121 (_ bv4 32)))))
(assert (not (not (= symbol_119 (_ bv4 32)))))
(assert (not (not (= symbol_117 (_ bv4 32)))))
(assert (not (not (= symbol_115 (_ bv4 32)))))
(assert (not (not (= symbol_113 (_ bv4 32)))))
(assert (not (not (= symbol_111 (_ bv4 32)))))
(assert (not (not (= symbol_109 (_ bv4 32)))))
(assert (not (not (= symbol_107 (_ bv4 32)))))
(assert (not (not (= symbol_105 (_ bv4 32)))))
(assert (not (not (= symbol_103 (_ bv4 32)))))
(assert (not (not (= symbol_101 (_ bv4 32)))))
(assert (not (not (= symbol_99 (_ bv4 32)))))
(assert (not (not (= symbol_97 (_ bv4 32)))))
(assert (not (not (= symbol_94 (_ bv4 32)))))
(assert (not (not (= symbol_92 (_ bv4 32)))))
(assert (not (not (= symbol_90 (_ bv4 32)))))
(assert (not (not (= symbol_89 (_ bv4 32)))))
(assert (not (not (= symbol_87 (_ bv4 32)))))
(assert (not (not (= symbol_85 (_ bv4 32)))))
(assert (not (not (= symbol_83 (_ bv4 32)))))
(assert (not (not (= symbol_81 (_ bv4 32)))))
(assert (not (not (= symbol_79 (_ bv4 32)))))
(assert (not (not (= symbol_77 (_ bv4 32)))))
(assert (not (not (= symbol_75 (_ bv4 32)))))
(assert (not (not (= symbol_73 (_ bv4 32)))))
(assert (not (not (= symbol_71 (_ bv4 32)))))
(assert (not (not (= symbol_70 (_ bv4 32)))))
(assert (not (not (= symbol_68 (_ bv4 32)))))
(assert (not (not (= symbol_65 (_ bv4 32)))))
(assert (not (not (= symbol_63 (_ bv4 32)))))
(assert (not (not (= symbol_61 (_ bv4 32)))))
(assert (not (not (= symbol_59 (_ bv4 32)))))
(assert (not (not (= symbol_57 (_ bv4 32)))))
(assert (not (not (= symbol_55 (_ bv4 32)))))
(assert (not (not (= symbol_53 (_ bv4 32)))))
(assert (not (not (= symbol_51 (_ bv4 32)))))
(assert (not (not (= symbol_49 (_ bv4 32)))))
(assert (not (not (= symbol_47 (_ bv4 32)))))
(assert (not (not (= symbol_45 (_ bv4 32)))))
(assert (not (not (= symbol_43 (_ bv4 32)))))
(assert (not (not (= symbol_40 (_ bv4 32)))))
(assert (not (not (= symbol_38 (_ bv4 32)))))
(assert (not (not (= symbol_36 (_ bv4 32)))))
(assert (not (not (= symbol_34 (_ bv4 32)))))
(assert (not (not (= symbol_32 (_ bv4 32)))))
(assert (not (not (= symbol_30 (_ bv4 32)))))
(assert (not (not (= symbol_28 (_ bv4 32)))))
(assert (not (not (= symbol_27 (_ bv4 32)))))
(assert (not (not (= symbol_25 (_ bv4 32)))))
(assert (not (not (= symbol_23 (_ bv4 32)))))
(assert (not (not (= symbol_21 (_ bv4 32)))))
(assert (not (not (= symbol_19 (_ bv4 32)))))
(assert (not (not (= symbol_18 (_ bv4 32)))))
(assert (not (not (= symbol_15 (_ bv4 32)))))
(assert (not (not (= symbol_13 (_ bv4 32)))))
(assert (not (not (= symbol_11 (_ bv4 32)))))
(assert (not (not (= symbol_8 (_ bv4 32)))))
(assert (not (not (= symbol_6 (_ bv4 32)))))
(assert (not (not (= symbol_4 (_ bv4 32)))))
(assert (not (not (= symbol_2 (_ bv4 32)))))
(assert (not (not (= symbol_0 (_ bv6 32)))))
(assert (not (= symbol_0 (_ bv4 32))))
(check-sat)